NAME: xqg237
COMMENT: Tour length 2129.1797546523158
TYPE: TOUR
DIMENSION: 237
TOUR_SECTION
1
2
3
12
11
22
10
9
8
23
6
21
14
15
0
17
16
18
19
20
13
4
5
7
24
25
26
27
28
29
30
31
32
33
34
35
36
37
38
39
40
41
42
43
61
50
49
47
48
46
45
51
52
53
44
60
59
57
58
56
55
54
62
63
64
65
66
67
68
69
70
71
72
73
80
81
82
83
84
85
77
76
75
74
101
100
86
87
88
89
90
91
92
93
94
95
96
97
98
99
106
107
108
109
110
111
112
113
105
104
103
102
79
78
114
115
116
117
118
119
120
121
122
123
124
125
126
228
229
230
202
135
134
133
132
131
130
137
198
143
142
141
140
139
138
179
178
177
227
226
225
224
221
213
214
215
156
157
158
159
160
161
162
163
164
197
188
189
190
191
192
193
165
168
155
154
153
152
151
150
149
148
147
146
145
144
166
167
194
195
196
184
183
182
180
181
199
200
201
236
223
222
186
187
185
232
231
233
234
235
204
205
206
207
208
209
210
211
212
203
220
219
218
217
216
169
170
171
172
173
174
175
176
127
128
129
136
-1
EOF